npieces = 15;
duration = [5, 9, 6, 5, 8, 9, 7, 2, 8, 2, 5, 1, 3, 7, 6];
nplayers = 50;
rehearsal = [[0, 1, 1, 1, 1, 0, 1, 1, 1, 0, 1, 1, 1, 1, 0], [0, 1, 0, 0, 1, 1, 1, 1, 0, 1, 1, 0, 1, 0, 1], [1, 0, 0, 1, 1, 1, 1, 1, 1, 1, 1, 1, 1, 1, 1], [1, 1, 1, 0, 1, 0, 1, 1, 1, 1, 1, 0, 0, 1, 1], [1, 1, 0, 1, 1, 1, 1, 1, 0, 1, 1, 0, 0, 1, 1], [1, 1, 1, 0, 1, 1, 1, 1, 1, 1, 1, 1, 1, 0, 1], [1, 1, 0, 1, 0, 1, 1, 1, 1, 1, 1, 1, 1, 1, 1], [1, 0, 0, 1, 1, 0, 1, 0, 1, 1, 1, 1, 1, 1, 0], [1, 1, 1, 1, 0, 1, 0, 1, 1, 1, 1, 1, 1, 1, 1], [1, 0, 1, 1, 1, 1, 1, 0, 1, 1, 1, 1, 1, 1, 1], [1, 1, 1, 1, 1, 1, 1, 1, 1, 1, 1, 1, 1, 0, 1], [0, 1, 1, 1, 1, 0, 1, 1, 1, 0, 1, 1, 1, 1, 1], [1, 1, 1, 0, 1, 0, 1, 1, 1, 1, 0, 0, 1, 1, 1], [1, 0, 1, 1, 1, 1, 1, 0, 1, 1, 1, 1, 0, 1, 1], [1, 1, 0, 1, 1, 1, 1, 1, 1, 0, 1, 0, 1, 1, 0], [0, 0, 1, 0, 1, 0, 0, 1, 1, 0, 1, 1, 1, 1, 1], [1, 1, 1, 1, 1, 0, 0, 1, 1, 1, 1, 1, 1, 0, 0], [1, 1, 1, 1, 1, 1, 0, 0, 1, 1, 1, 1, 0, 1, 1], [0, 1, 1, 1, 0, 1, 0, 1, 1, 1, 0, 1, 0, 1, 1], [1, 1, 1, 1, 1, 0, 1, 1, 1, 1, 1, 0, 1, 1, 1], [1, 1, 1, 0, 1, 1, 1, 0, 1, 1, 1, 1, 1, 0, 1], [1, 0, 1, 1, 1, 0, 0, 1, 1, 1, 1, 1, 1, 1, 0], [1, 1, 1, 0, 1, 1, 1, 1, 1, 1, 1, 1, 1, 1, 1], [1, 1, 1, 1, 1, 1, 0, 1, 1, 0, 1, 0, 1, 1, 0], [1, 0, 1, 1, 1, 1, 1, 0, 1, 1, 1, 1, 0, 1, 1], [1, 1, 1, 1, 1, 1, 1, 0, 1, 1, 0, 1, 1, 1, 1], [1, 1, 1, 1, 0, 0, 1, 1, 1, 1, 0, 1, 1, 0, 1], [1, 1, 0, 1, 1, 1, 1, 1, 1, 1, 1, 1, 1, 1, 1], [1, 1, 1, 1, 0, 0, 1, 1, 0, 1, 1, 1, 1, 1, 1], [1, 1, 0, 0, 0, 1, 1, 0, 1, 1, 1, 1, 0, 0, 1], [1, 1, 0, 1, 0, 1, 0, 1, 1, 1, 0, 1, 1, 0, 1], [1, 1, 0, 1, 0, 1, 1, 1, 1, 1, 1, 0, 1, 1, 1], [0, 1, 1, 1, 1, 0, 0, 1, 0, 1, 1, 1, 1, 1, 1], [1, 0, 1, 1, 1, 1, 1, 1, 1, 1, 1, 1, 1, 1, 1], [1, 1, 1, 1, 1, 1, 1, 0, 1, 1, 1, 1, 1, 0, 0], [1, 1, 1, 1, 0, 1, 0, 1, 1, 1, 1, 0, 1, 1, 1], [0, 1, 0, 1, 1, 1, 1, 1, 1, 1, 1, 1, 1, 0, 1], [1, 1, 0, 0, 1, 1, 1, 1, 0, 1, 1, 1, 1, 1, 1], [0, 1, 0, 1, 0, 1, 1, 1, 0, 0, 0, 1, 1, 1, 1], [1, 1, 1, 1, 1, 1, 0, 1, 1, 1, 0, 0, 1, 1, 1], [1, 1, 0, 1, 1, 1, 1, 1, 0, 1, 1, 1, 1, 1, 1], [1, 0, 1, 1, 1, 1, 1, 1, 1, 1, 1, 1, 0, 0, 1], [0, 1, 1, 0, 1, 1, 1, 1, 1, 0, 1, 1, 1, 1, 1], [1, 1, 1, 1, 0, 1, 0, 1, 1, 0, 1, 1, 1, 0, 1], [1, 1, 0, 1, 0, 1, 1, 0, 1, 1, 1, 0, 1, 1, 0], [0, 1, 0, 0, 1, 1, 1, 1, 1, 0, 1, 1, 1, 1, 1], [0, 1, 1, 1, 1, 1, 1, 1, 0, 1, 1, 1, 1, 1, 1], [0, 1, 0, 1, 1, 1, 0, 1, 0, 1, 1, 1, 1, 1, 1], [0, 1, 1, 1, 1, 1, 0, 1, 1, 1, 0, 1, 1, 0, 1], [1, 1, 1, 1, 1, 1, 1, 1, 1, 1, 1, 1, 0, 1, 1]];